NAME          ClpDefau
ROWS
 N  OBJROW
 L  R_164_0
 L  R_164_1
 L  R_164_2
 L  R_164_3
 L  R_164_4
 L  R_164_5
 L  R_164_6
 L  R_164_7
 L  R_164_8
 L  R_164_9
 L  R_164_10
 L  R_164_11
 L  R_164_12
 L  R_164_13
 L  R_164_14
 L  R_164_15
COLUMNS
    x_0       OBJROW     -1.           R_164_0   5.          
    x_0       R_164_1   21.            R_164_3   93.         
    x_0       R_164_5   48.            R_164_6   57.         
    x_0       R_164_7   5.             R_164_9   41.         
    x_0       R_164_11  68.            R_164_12  23.         
    x_0       R_164_13  4.             R_164_14  23.         
    x_0       R_164_15  66.         
    x_1       OBJROW     -2.           R_164_0   66.         
    x_1       R_164_1   24.            R_164_3   54.         
    x_1       R_164_4   98.            R_164_5   76.         
    x_1       R_164_6   58.            R_164_7   97.         
    x_1       R_164_8   95.            R_164_9   68.         
    x_1       R_164_10  36.            R_164_12  46.         
    x_1       R_164_13  59.            R_164_15  73.         
    x_2       OBJROW     -2.           R_164_0   72.         
    x_2       R_164_1   63.            R_164_2   42.         
    x_2       R_164_6   99.            R_164_8   91.         
    x_2       R_164_10  65.            R_164_11  76.         
    x_2       R_164_12  94.            R_164_13  66.         
    x_2       R_164_14  88.            R_164_15  10.         
    x_3       OBJROW     -6.           R_164_0   44.         
    x_3       R_164_1   25.            R_164_3   74.         
    x_3       R_164_4   35.            R_164_5   88.         
    x_3       R_164_7   67.            R_164_8   35.         
    x_3       R_164_9   27.            R_164_11  92.         
    x_3       R_164_12  8.             R_164_13  23.         
    x_3       R_164_14  4.             R_164_15  9.          
    x_4       OBJROW     -3.           R_164_0   94.         
    x_4       R_164_2   17.            R_164_4   24.         
    x_4       R_164_5   1.             R_164_6   6.          
    x_4       R_164_7   32.            R_164_8   5.          
    x_4       R_164_9   79.            R_164_10  96.         
    x_4       R_164_11  44.            R_164_12  40.         
    x_4       R_164_13  99.            R_164_14  6.          
    x_5       OBJROW     -5.           R_164_0   80.         
    x_5       R_164_1   61.            R_164_3   88.         
    x_5       R_164_4   14.            R_164_5   17.         
    x_5       R_164_6   100.           R_164_7   66.         
    x_5       R_164_8   44.            R_164_9   78.         
    x_5       R_164_11  90.            R_164_12  18.         
    x_5       R_164_13  33.            R_164_14  21.         
    x_5       R_164_15  59.         
    x_6       OBJROW     -5.           R_164_0   66.         
    x_6       R_164_2   5.             R_164_4   57.         
    x_6       R_164_5   11.            R_164_6   80.         
    x_6       R_164_7   80.            R_164_8   33.         
    x_6       R_164_9   36.            R_164_10  1.          
    x_6       R_164_11  50.            R_164_12  15.         
    x_6       R_164_13  12.            R_164_14  13.         
    x_6       R_164_15  97.         
    x_7       OBJROW     -10.          R_164_0   28.         
    x_7       R_164_1   86.            R_164_2   40.         
    x_7       R_164_3   49.            R_164_4   98.         
    x_7       R_164_6   56.            R_164_7   3.          
    x_7       R_164_8   7.             R_164_11  13.         
    x_7       R_164_12  62.            R_164_13  67.         
    x_7       R_164_15  47.         
RHS
    RHS       R_164_0   357.           R_164_1   408.        
    RHS       R_164_2   367.           R_164_3   359.        
    RHS       R_164_4   322.           R_164_5   407.        
    RHS       R_164_6   372.           R_164_7   332.        
    RHS       R_164_8   333.           R_164_9   359.        
    RHS       R_164_10  345.           R_164_11  419.        
    RHS       R_164_12  406.           R_164_13  425.        
    RHS       R_164_14  322.           R_164_15  423.        
BOUNDS
 UI BOUND     x_0       10.         
 UI BOUND     x_1       10.         
 UI BOUND     x_2       10.         
 UI BOUND     x_3       10.         
 UI BOUND     x_4       10.         
 UI BOUND     x_5       10.         
 UI BOUND     x_6       10.         
 UI BOUND     x_7       10.         
ENDATA
